letting n =  10
letting blocks =  [[1, 1], [1, 2], [1, 3], [1, 4], [1, 8], [2, 1], [2, 2], [2, 7], [2, 8], [3, 1], [3, 2], [3, 3], [3, 10], [4, 4], [4, 6], [4, 7], [5, 2], [5, 5], [5, 6], [5, 7], [5, 10], [6, 3], [6, 8], [6, 9], [6, 10], [7, 1], [7, 3], [7, 5], [7, 7], [7, 8], [8, 1], [8, 4], [8, 8], [9, 1], [9, 3], [9, 4], [9, 5], [9, 8], [10, 2], [10, 3], [10, 4], [10, 5], [10, 6], [10, 9]]
